p cnf 280 1972
1 2 3 4 5 6 7 0
8 9 10 11 12 13 14 0
15 16 17 18 19 20 21 0
22 23 24 25 26 27 28 0
29 30 31 32 33 34 35 0
36 37 38 39 40 41 42 0
43 44 45 46 47 48 49 0
50 51 52 53 54 55 56 0
57 58 59 60 61 62 63 0
64 65 66 67 68 69 70 0
71 72 73 74 75 76 77 0
78 79 80 81 82 83 84 0
85 86 87 88 89 90 91 0
92 93 94 95 96 97 98 0
99 100 101 102 103 104 105 0
106 107 108 109 110 111 112 0
113 114 115 116 117 118 119 0
120 121 122 123 124 125 126 0
127 128 129 130 131 132 133 0
134 135 136 137 138 139 140 0
141 142 143 144 145 146 147 0
148 149 150 151 152 153 154 0
155 156 157 158 159 160 161 0
162 163 164 165 166 167 168 0
169 170 171 172 173 174 175 0
176 177 178 179 180 181 182 0
183 184 185 186 187 188 189 0
190 191 192 193 194 195 196 0
197 198 199 200 201 202 203 0
204 205 206 207 208 209 210 0
211 212 213 214 215 216 217 0
218 219 220 221 222 223 224 0
225 226 227 228 229 230 231 0
232 233 234 235 236 237 238 0
239 240 241 242 243 244 245 0
246 247 248 249 250 251 252 0
253 254 255 256 257 258 259 0
260 261 262 263 264 265 266 0
267 268 269 270 271 272 273 0
274 275 276 277 278 279 280 0
-1 -2 0
-1 -3 0
-1 -4 0
-1 -5 0
-1 -6 0
-1 -7 0
-2 -3 0
-2 -4 0
-2 -5 0
-2 -6 0
-2 -7 0
-3 -4 0
-3 -5 0
-3 -6 0
-3 -7 0
-4 -5 0
-4 -6 0
-4 -7 0
-5 -6 0
-5 -7 0
-6 -7 0
-8 -9 0
-8 -10 0
-8 -11 0
-8 -12 0
-8 -13 0
-8 -14 0
-9 -10 0
-9 -11 0
-9 -12 0
-9 -13 0
-9 -14 0
-10 -11 0
-10 -12 0
-10 -13 0
-10 -14 0
-11 -12 0
-11 -13 0
-11 -14 0
-12 -13 0
-12 -14 0
-13 -14 0
-15 -16 0
-15 -17 0
-15 -18 0
-15 -19 0
-15 -20 0
-15 -21 0
-16 -17 0
-16 -18 0
-16 -19 0
-16 -20 0
-16 -21 0
-17 -18 0
-17 -19 0
-17 -20 0
-17 -21 0
-18 -19 0
-18 -20 0
-18 -21 0
-19 -20 0
-19 -21 0
-20 -21 0
-22 -23 0
-22 -24 0
-22 -25 0
-22 -26 0
-22 -27 0
-22 -28 0
-23 -24 0
-23 -25 0
-23 -26 0
-23 -27 0
-23 -28 0
-24 -25 0
-24 -26 0
-24 -27 0
-24 -28 0
-25 -26 0
-25 -27 0
-25 -28 0
-26 -27 0
-26 -28 0
-27 -28 0
-29 -30 0
-29 -31 0
-29 -32 0
-29 -33 0
-29 -34 0
-29 -35 0
-30 -31 0
-30 -32 0
-30 -33 0
-30 -34 0
-30 -35 0
-31 -32 0
-31 -33 0
-31 -34 0
-31 -35 0
-32 -33 0
-32 -34 0
-32 -35 0
-33 -34 0
-33 -35 0
-34 -35 0
-36 -37 0
-36 -38 0
-36 -39 0
-36 -40 0
-36 -41 0
-36 -42 0
-37 -38 0
-37 -39 0
-37 -40 0
-37 -41 0
-37 -42 0
-38 -39 0
-38 -40 0
-38 -41 0
-38 -42 0
-39 -40 0
-39 -41 0
-39 -42 0
-40 -41 0
-40 -42 0
-41 -42 0
-43 -44 0
-43 -45 0
-43 -46 0
-43 -47 0
-43 -48 0
-43 -49 0
-44 -45 0
-44 -46 0
-44 -47 0
-44 -48 0
-44 -49 0
-45 -46 0
-45 -47 0
-45 -48 0
-45 -49 0
-46 -47 0
-46 -48 0
-46 -49 0
-47 -48 0
-47 -49 0
-48 -49 0
-50 -51 0
-50 -52 0
-50 -53 0
-50 -54 0
-50 -55 0
-50 -56 0
-51 -52 0
-51 -53 0
-51 -54 0
-51 -55 0
-51 -56 0
-52 -53 0
-52 -54 0
-52 -55 0
-52 -56 0
-53 -54 0
-53 -55 0
-53 -56 0
-54 -55 0
-54 -56 0
-55 -56 0
-57 -58 0
-57 -59 0
-57 -60 0
-57 -61 0
-57 -62 0
-57 -63 0
-58 -59 0
-58 -60 0
-58 -61 0
-58 -62 0
-58 -63 0
-59 -60 0
-59 -61 0
-59 -62 0
-59 -63 0
-60 -61 0
-60 -62 0
-60 -63 0
-61 -62 0
-61 -63 0
-62 -63 0
-64 -65 0
-64 -66 0
-64 -67 0
-64 -68 0
-64 -69 0
-64 -70 0
-65 -66 0
-65 -67 0
-65 -68 0
-65 -69 0
-65 -70 0
-66 -67 0
-66 -68 0
-66 -69 0
-66 -70 0
-67 -68 0
-67 -69 0
-67 -70 0
-68 -69 0
-68 -70 0
-69 -70 0
-71 -72 0
-71 -73 0
-71 -74 0
-71 -75 0
-71 -76 0
-71 -77 0
-72 -73 0
-72 -74 0
-72 -75 0
-72 -76 0
-72 -77 0
-73 -74 0
-73 -75 0
-73 -76 0
-73 -77 0
-74 -75 0
-74 -76 0
-74 -77 0
-75 -76 0
-75 -77 0
-76 -77 0
-78 -79 0
-78 -80 0
-78 -81 0
-78 -82 0
-78 -83 0
-78 -84 0
-79 -80 0
-79 -81 0
-79 -82 0
-79 -83 0
-79 -84 0
-80 -81 0
-80 -82 0
-80 -83 0
-80 -84 0
-81 -82 0
-81 -83 0
-81 -84 0
-82 -83 0
-82 -84 0
-83 -84 0
-85 -86 0
-85 -87 0
-85 -88 0
-85 -89 0
-85 -90 0
-85 -91 0
-86 -87 0
-86 -88 0
-86 -89 0
-86 -90 0
-86 -91 0
-87 -88 0
-87 -89 0
-87 -90 0
-87 -91 0
-88 -89 0
-88 -90 0
-88 -91 0
-89 -90 0
-89 -91 0
-90 -91 0
-92 -93 0
-92 -94 0
-92 -95 0
-92 -96 0
-92 -97 0
-92 -98 0
-93 -94 0
-93 -95 0
-93 -96 0
-93 -97 0
-93 -98 0
-94 -95 0
-94 -96 0
-94 -97 0
-94 -98 0
-95 -96 0
-95 -97 0
-95 -98 0
-96 -97 0
-96 -98 0
-97 -98 0
-99 -100 0
-99 -101 0
-99 -102 0
-99 -103 0
-99 -104 0
-99 -105 0
-100 -101 0
-100 -102 0
-100 -103 0
-100 -104 0
-100 -105 0
-101 -102 0
-101 -103 0
-101 -104 0
-101 -105 0
-102 -103 0
-102 -104 0
-102 -105 0
-103 -104 0
-103 -105 0
-104 -105 0
-106 -107 0
-106 -108 0
-106 -109 0
-106 -110 0
-106 -111 0
-106 -112 0
-107 -108 0
-107 -109 0
-107 -110 0
-107 -111 0
-107 -112 0
-108 -109 0
-108 -110 0
-108 -111 0
-108 -112 0
-109 -110 0
-109 -111 0
-109 -112 0
-110 -111 0
-110 -112 0
-111 -112 0
-113 -114 0
-113 -115 0
-113 -116 0
-113 -117 0
-113 -118 0
-113 -119 0
-114 -115 0
-114 -116 0
-114 -117 0
-114 -118 0
-114 -119 0
-115 -116 0
-115 -117 0
-115 -118 0
-115 -119 0
-116 -117 0
-116 -118 0
-116 -119 0
-117 -118 0
-117 -119 0
-118 -119 0
-120 -121 0
-120 -122 0
-120 -123 0
-120 -124 0
-120 -125 0
-120 -126 0
-121 -122 0
-121 -123 0
-121 -124 0
-121 -125 0
-121 -126 0
-122 -123 0
-122 -124 0
-122 -125 0
-122 -126 0
-123 -124 0
-123 -125 0
-123 -126 0
-124 -125 0
-124 -126 0
-125 -126 0
-127 -128 0
-127 -129 0
-127 -130 0
-127 -131 0
-127 -132 0
-127 -133 0
-128 -129 0
-128 -130 0
-128 -131 0
-128 -132 0
-128 -133 0
-129 -130 0
-129 -131 0
-129 -132 0
-129 -133 0
-130 -131 0
-130 -132 0
-130 -133 0
-131 -132 0
-131 -133 0
-132 -133 0
-134 -135 0
-134 -136 0
-134 -137 0
-134 -138 0
-134 -139 0
-134 -140 0
-135 -136 0
-135 -137 0
-135 -138 0
-135 -139 0
-135 -140 0
-136 -137 0
-136 -138 0
-136 -139 0
-136 -140 0
-137 -138 0
-137 -139 0
-137 -140 0
-138 -139 0
-138 -140 0
-139 -140 0
-141 -142 0
-141 -143 0
-141 -144 0
-141 -145 0
-141 -146 0
-141 -147 0
-142 -143 0
-142 -144 0
-142 -145 0
-142 -146 0
-142 -147 0
-143 -144 0
-143 -145 0
-143 -146 0
-143 -147 0
-144 -145 0
-144 -146 0
-144 -147 0
-145 -146 0
-145 -147 0
-146 -147 0
-148 -149 0
-148 -150 0
-148 -151 0
-148 -152 0
-148 -153 0
-148 -154 0
-149 -150 0
-149 -151 0
-149 -152 0
-149 -153 0
-149 -154 0
-150 -151 0
-150 -152 0
-150 -153 0
-150 -154 0
-151 -152 0
-151 -153 0
-151 -154 0
-152 -153 0
-152 -154 0
-153 -154 0
-155 -156 0
-155 -157 0
-155 -158 0
-155 -159 0
-155 -160 0
-155 -161 0
-156 -157 0
-156 -158 0
-156 -159 0
-156 -160 0
-156 -161 0
-157 -158 0
-157 -159 0
-157 -160 0
-157 -161 0
-158 -159 0
-158 -160 0
-158 -161 0
-159 -160 0
-159 -161 0
-160 -161 0
-162 -163 0
-162 -164 0
-162 -165 0
-162 -166 0
-162 -167 0
-162 -168 0
-163 -164 0
-163 -165 0
-163 -166 0
-163 -167 0
-163 -168 0
-164 -165 0
-164 -166 0
-164 -167 0
-164 -168 0
-165 -166 0
-165 -167 0
-165 -168 0
-166 -167 0
-166 -168 0
-167 -168 0
-169 -170 0
-169 -171 0
-169 -172 0
-169 -173 0
-169 -174 0
-169 -175 0
-170 -171 0
-170 -172 0
-170 -173 0
-170 -174 0
-170 -175 0
-171 -172 0
-171 -173 0
-171 -174 0
-171 -175 0
-172 -173 0
-172 -174 0
-172 -175 0
-173 -174 0
-173 -175 0
-174 -175 0
-176 -177 0
-176 -178 0
-176 -179 0
-176 -180 0
-176 -181 0
-176 -182 0
-177 -178 0
-177 -179 0
-177 -180 0
-177 -181 0
-177 -182 0
-178 -179 0
-178 -180 0
-178 -181 0
-178 -182 0
-179 -180 0
-179 -181 0
-179 -182 0
-180 -181 0
-180 -182 0
-181 -182 0
-183 -184 0
-183 -185 0
-183 -186 0
-183 -187 0
-183 -188 0
-183 -189 0
-184 -185 0
-184 -186 0
-184 -187 0
-184 -188 0
-184 -189 0
-185 -186 0
-185 -187 0
-185 -188 0
-185 -189 0
-186 -187 0
-186 -188 0
-186 -189 0
-187 -188 0
-187 -189 0
-188 -189 0
-190 -191 0
-190 -192 0
-190 -193 0
-190 -194 0
-190 -195 0
-190 -196 0
-191 -192 0
-191 -193 0
-191 -194 0
-191 -195 0
-191 -196 0
-192 -193 0
-192 -194 0
-192 -195 0
-192 -196 0
-193 -194 0
-193 -195 0
-193 -196 0
-194 -195 0
-194 -196 0
-195 -196 0
-197 -198 0
-197 -199 0
-197 -200 0
-197 -201 0
-197 -202 0
-197 -203 0
-198 -199 0
-198 -200 0
-198 -201 0
-198 -202 0
-198 -203 0
-199 -200 0
-199 -201 0
-199 -202 0
-199 -203 0
-200 -201 0
-200 -202 0
-200 -203 0
-201 -202 0
-201 -203 0
-202 -203 0
-204 -205 0
-204 -206 0
-204 -207 0
-204 -208 0
-204 -209 0
-204 -210 0
-205 -206 0
-205 -207 0
-205 -208 0
-205 -209 0
-205 -210 0
-206 -207 0
-206 -208 0
-206 -209 0
-206 -210 0
-207 -208 0
-207 -209 0
-207 -210 0
-208 -209 0
-208 -210 0
-209 -210 0
-211 -212 0
-211 -213 0
-211 -214 0
-211 -215 0
-211 -216 0
-211 -217 0
-212 -213 0
-212 -214 0
-212 -215 0
-212 -216 0
-212 -217 0
-213 -214 0
-213 -215 0
-213 -216 0
-213 -217 0
-214 -215 0
-214 -216 0
-214 -217 0
-215 -216 0
-215 -217 0
-216 -217 0
-218 -219 0
-218 -220 0
-218 -221 0
-218 -222 0
-218 -223 0
-218 -224 0
-219 -220 0
-219 -221 0
-219 -222 0
-219 -223 0
-219 -224 0
-220 -221 0
-220 -222 0
-220 -223 0
-220 -224 0
-221 -222 0
-221 -223 0
-221 -224 0
-222 -223 0
-222 -224 0
-223 -224 0
-225 -226 0
-225 -227 0
-225 -228 0
-225 -229 0
-225 -230 0
-225 -231 0
-226 -227 0
-226 -228 0
-226 -229 0
-226 -230 0
-226 -231 0
-227 -228 0
-227 -229 0
-227 -230 0
-227 -231 0
-228 -229 0
-228 -230 0
-228 -231 0
-229 -230 0
-229 -231 0
-230 -231 0
-232 -233 0
-232 -234 0
-232 -235 0
-232 -236 0
-232 -237 0
-232 -238 0
-233 -234 0
-233 -235 0
-233 -236 0
-233 -237 0
-233 -238 0
-234 -235 0
-234 -236 0
-234 -237 0
-234 -238 0
-235 -236 0
-235 -237 0
-235 -238 0
-236 -237 0
-236 -238 0
-237 -238 0
-239 -240 0
-239 -241 0
-239 -242 0
-239 -243 0
-239 -244 0
-239 -245 0
-240 -241 0
-240 -242 0
-240 -243 0
-240 -244 0
-240 -245 0
-241 -242 0
-241 -243 0
-241 -244 0
-241 -245 0
-242 -243 0
-242 -244 0
-242 -245 0
-243 -244 0
-243 -245 0
-244 -245 0
-246 -247 0
-246 -248 0
-246 -249 0
-246 -250 0
-246 -251 0
-246 -252 0
-247 -248 0
-247 -249 0
-247 -250 0
-247 -251 0
-247 -252 0
-248 -249 0
-248 -250 0
-248 -251 0
-248 -252 0
-249 -250 0
-249 -251 0
-249 -252 0
-250 -251 0
-250 -252 0
-251 -252 0
-253 -254 0
-253 -255 0
-253 -256 0
-253 -257 0
-253 -258 0
-253 -259 0
-254 -255 0
-254 -256 0
-254 -257 0
-254 -258 0
-254 -259 0
-255 -256 0
-255 -257 0
-255 -258 0
-255 -259 0
-256 -257 0
-256 -258 0
-256 -259 0
-257 -258 0
-257 -259 0
-258 -259 0
-260 -261 0
-260 -262 0
-260 -263 0
-260 -264 0
-260 -265 0
-260 -266 0
-261 -262 0
-261 -263 0
-261 -264 0
-261 -265 0
-261 -266 0
-262 -263 0
-262 -264 0
-262 -265 0
-262 -266 0
-263 -264 0
-263 -265 0
-263 -266 0
-264 -265 0
-264 -266 0
-265 -266 0
-267 -268 0
-267 -269 0
-267 -270 0
-267 -271 0
-267 -272 0
-267 -273 0
-268 -269 0
-268 -270 0
-268 -271 0
-268 -272 0
-268 -273 0
-269 -270 0
-269 -271 0
-269 -272 0
-269 -273 0
-270 -271 0
-270 -272 0
-270 -273 0
-271 -272 0
-271 -273 0
-272 -273 0
-274 -275 0
-274 -276 0
-274 -277 0
-274 -278 0
-274 -279 0
-274 -280 0
-275 -276 0
-275 -277 0
-275 -278 0
-275 -279 0
-275 -280 0
-276 -277 0
-276 -278 0
-276 -279 0
-276 -280 0
-277 -278 0
-277 -279 0
-277 -280 0
-278 -279 0
-278 -280 0
-279 -280 0
-3 -87 0
-2 -89 0
-4 -87 0
-6 -86 0
-6 -85 0
-7 -88 0
-5 -85 0
-3 -85 0
-2 -86 0
-1 -86 0
-4 -91 0
-6 -87 0
-2 -90 0
-2 -91 0
-4 -118 0
-5 -118 0
-4 -113 0
-6 -117 0
-1 -115 0
-1 -118 0
-4 -114 0
-6 -114 0
-1 -113 0
-6 -115 0
-3 -118 0
-2 -118 0
-2 -113 0
-4 -117 0
-3 -158 0
-1 -158 0
-5 -158 0
-6 -157 0
-4 -158 0
-4 -156 0
-2 -160 0
-5 -156 0
-2 -155 0
-3 -156 0
-3 -155 0
-7 -156 0
-1 -161 0
-1 -159 0
-3 -279 0
-1 -278 0
-6 -278 0
-2 -275 0
-4 -280 0
-6 -276 0
-4 -279 0
-3 -274 0
-6 -275 0
-4 -274 0
-5 -274 0
-2 -277 0
-3 -277 0
-1 -277 0
-9 -39 0
-12 -42 0
-9 -41 0
-14 -37 0
-11 -41 0
-13 -37 0
-11 -42 0
-14 -41 0
-12 -37 0
-13 -36 0
-14 -38 0
-11 -36 0
-13 -41 0
-11 -37 0
-12 -227 0
-13 -229 0
-9 -231 0
-12 -228 0
-13 -230 0
-13 -225 0
-11 -230 0
-12 -229 0
-8 -230 0
-11 -228 0
-10 -231 0
-10 -228 0
-13 -231 0
-13 -228 0
-21 -26 0
-17 -24 0
-16 -27 0
-19 -23 0
-19 -22 0
-18 -28 0
-17 -27 0
-20 -22 0
-19 -28 0
-17 -25 0
-18 -23 0
-21 -28 0
-16 -28 0
-21 -24 0
-18 -52 0
-21 -51 0
-15 -52 0
-18 -51 0
-16 -51 0
-21 -54 0
-20 -50 0
-16 -53 0
-15 -55 0
-19 -54 0
-17 -52 0
-16 -50 0
-18 -53 0
-18 -54 0
-21 -259 0
-15 -258 0
-15 -253 0
-17 -255 0
-16 -253 0
-15 -254 0
-20 -254 0
-17 -259 0
-21 -253 0
-17 -257 0
-16 -255 0
-20 -259 0
-19 -259 0
-19 -255 0
-23 -143 0
-27 -143 0
-23 -144 0
-26 -142 0
-23 -142 0
-25 -147 0
-27 -147 0
-28 -142 0
-28 -147 0
-25 -144 0
-25 -143 0
-27 -146 0
-26 -147 0
-26 -146 0
-24 -152 0
-22 -148 0
-27 -149 0
-28 -152 0
-22 -152 0
-26 -149 0
-28 -148 0
-27 -148 0
-24 -151 0
-27 -154 0
-23 -154 0
-25 -148 0
-26 -148 0
-24 -153 0
-26 -203 0
-24 -203 0
-26 -198 0
-23 -203 0
-27 -201 0
-25 -199 0
-28 -201 0
-27 -203 0
-28 -197 0
-27 -199 0
-26 -201 0
-26 -199 0
-27 -200 0
-28 -199 0
-23 -225 0
-28 -229 0
-22 -227 0
-26 -231 0
-28 -227 0
-25 -229 0
-23 -229 0
-24 -230 0
-22 -225 0
-26 -230 0
-26 -226 0
-25 -225 0
-23 -230 0
-27 -230 0
-26 -258 0
-26 -257 0
-26 -253 0
-25 -258 0
-28 -253 0
-22 -253 0
-27 -253 0
-27 -255 0
-22 -254 0
-27 -257 0
-25 -255 0
-27 -259 0
-26 -254 0
-22 -255 0
-23 -274 0
-23 -280 0
-24 -275 0
-27 -276 0
-26 -275 0
-28 -275 0
-26 -276 0
-22 -277 0
-25 -274 0
-24 -279 0
-25 -275 0
-27 -278 0
-25 -277 0
-22 -280 0
-31 -244 0
-34 -243 0
-35 -244 0
-34 -239 0
-35 -243 0
-31 -240 0
-34 -242 0
-33 -245 0
-30 -239 0
-30 -244 0
-32 -245 0
-34 -240 0
-35 -239 0
-29 -241 0
-33 -259 0
-34 -257 0
-33 -255 0
-30 -254 0
-35 -257 0
-32 -258 0
-33 -257 0
-31 -255 0
-31 -256 0
-34 -253 0
-34 -259 0
-34 -256 0
-30 -255 0
-32 -254 0
-37 -43 0
-42 -48 0
-42 -46 0
-36 -47 0
-36 -49 0
-36 -46 0
-36 -48 0
-38 -47 0
-37 -46 0
-37 -47 0
-42 -43 0
-38 -49 0
-36 -45 0
-39 -47 0
-38 -81 0
-40 -84 0
-39 -81 0
-41 -80 0
-37 -80 0
-37 -83 0
-37 -79 0
-40 -78 0
-37 -78 0
-40 -83 0
-41 -83 0
-37 -82 0
-39 -78 0
-41 -82 0
-39 -122 0
-41 -125 0
-41 -123 0
-37 -120 0
-36 -124 0
-41 -124 0
-37 -124 0
-37 -125 0
-42 -124 0
-37 -122 0
-41 -121 0
-38 -125 0
-38 -126 0
-36 -120 0
-38 -128 0
-40 -128 0
-39 -128 0
-37 -127 0
-38 -130 0
-40 -131 0
-42 -127 0
-41 -130 0
-37 -129 0
-42 -131 0
-40 -133 0
-37 -132 0
-37 -128 0
-41 -131 0
-41 -141 0
-40 -142 0
-38 -146 0
-40 -144 0
-38 -143 0
-38 -147 0
-40 -145 0
-37 -142 0
-39 -145 0
-36 -147 0
-42 -146 0
-39 -146 0
-42 -144 0
-36 -142 0
-38 -182 0
-39 -179 0
-38 -178 0
-39 -182 0
-37 -180 0
-37 -182 0
-36 -177 0
-38 -179 0
-42 -178 0
-36 -182 0
-40 -180 0
-36 -179 0
-40 -179 0
-41 -182 0
-42 -251 0
-37 -251 0
-38 -252 0
-38 -251 0
-38 -248 0
-41 -251 0
-39 -251 0
-41 -246 0
-41 -250 0
-41 -252 0
-41 -248 0
-36 -250 0
-38 -246 0
-36 -251 0
-48 -142 0
-46 -144 0
-49 -144 0
-49 -143 0
-44 -141 0
-46 -143 0
-46 -147 0
-48 -147 0
-48 -144 0
-43 -142 0
-47 -147 0
-49 -142 0
-45 -146 0
-43 -143 0
-47 -189 0
-46 -185 0
-43 -183 0
-46 -189 0
-48 -186 0
-45 -184 0
-43 -187 0
-47 -188 0
-49 -186 0
-49 -183 0
-45 -183 0
-47 -184 0
-44 -189 0
-43 -189 0
-51 -123 0
-51 -120 0
-53 -123 0
-54 -123 0
-50 -121 0
-56 -122 0
-50 -125 0
-56 -120 0
-51 -125 0
-52 -120 0
-55 -121 0
-53 -122 0
-51 -126 0
-53 -124 0
-56 -201 0
-54 -197 0
-55 -198 0
-54 -201 0
-53 -200 0
-52 -203 0
-54 -203 0
-56 -202 0
-51 -202 0
-51 -197 0
-56 -198 0
-51 -200 0
-55 -202 0
-52 -197 0
-55 -238 0
-50 -235 0
-52 -234 0
-56 -232 0
-55 -232 0
-53 -238 0
-52 -236 0
-51 -233 0
-56 -234 0
-56 -238 0
-55 -234 0
-51 -237 0
-50 -238 0
-53 -237 0
-55 -276 0
-54 -275 0
-51 -277 0
-52 -279 0
-52 -278 0
-51 -276 0
-56 -277 0
-54 -277 0
-52 -275 0
-54 -276 0
-53 -277 0
-50 -275 0
-50 -279 0
-50 -280 0
-70 -101 0
-69 -102 0
-66 -100 0
-66 -104 0
-68 -99 0
-66 -103 0
-67 -101 0
-70 -103 0
-67 -104 0
-65 -104 0
-64 -103 0
-64 -99 0
-64 -100 0
-65 -105 0
-69 -124 0
-70 -126 0
-70 -125 0
-70 -121 0
-64 -120 0
-68 -123 0
-66 -121 0
-64 -123 0
-68 -126 0
-70 -124 0
-69 -125 0
-64 -121 0
-69 -120 0
-67 -124 0
-66 -145 0
-68 -142 0
-70 -143 0
-65 -143 0
-68 -144 0
-67 -141 0
-67 -143 0
-66 -146 0
-68 -141 0
-64 -144 0
-67 -144 0
-66 -144 0
-66 -147 0
-64 -143 0
-74 -99 0
-77 -99 0
-74 -103 0
-73 -104 0
-75 -100 0
-72 -105 0
-77 -101 0
-71 -102 0
-72 -100 0
-77 -100 0
-75 -104 0
-73 -101 0
-77 -105 0
-76 -100 0
-77 -106 0
-71 -112 0
-74 -107 0
-76 -109 0
-77 -108 0
-72 -109 0
-74 -108 0
-74 -106 0
-75 -109 0
-73 -110 0
-76 -111 0
-76 -110 0
-76 -112 0
-72 -110 0
-73 -241 0
-77 -241 0
-77 -239 0
-71 -244 0
-71 -240 0
-73 -243 0
-77 -244 0
-71 -242 0
-76 -243 0
-74 -240 0
-74 -239 0
-71 -245 0
-72 -240 0
-75 -241 0
-77 -253 0
-71 -255 0
-77 -257 0
-72 -253 0
-71 -259 0
-77 -254 0
-71 -258 0
-74 -255 0
-75 -253 0
-72 -255 0
-72 -259 0
-71 -254 0
-75 -254 0
-74 -258 0
-73 -263 0
-74 -263 0
-77 -261 0
-71 -261 0
-73 -266 0
-74 -266 0
-76 -262 0
-72 -264 0
-75 -265 0
-71 -266 0
-73 -262 0
-73 -264 0
-72 -260 0
-71 -263 0
-79 -116 0
-83 -115 0
-84 -116 0
-80 -114 0
-80 -117 0
-79 -115 0
-81 -114 0
-84 -115 0
-84 -113 0
-82 -118 0
-83 -113 0
-82 -115 0
-78 -117 0
-78 -114 0
-78 -196 0
-79 -194 0
-79 -193 0
-80 -192 0
-81 -190 0
-79 -190 0
-83 -193 0
-84 -192 0
-80 -196 0
-78 -194 0
-78 -191 0
-81 -193 0
-83 -192 0
-80 -193 0
-78 -268 0
-81 -271 0
-79 -267 0
-82 -267 0
-80 -272 0
-84 -271 0
-83 -272 0
-80 -267 0
-78 -270 0
-82 -273 0
-80 -270 0
-81 -267 0
-80 -268 0
-84 -269 0
-88 -161 0
-86 -159 0
-88 -160 0
-87 -158 0
-91 -159 0
-87 -159 0
-90 -159 0
-85 -159 0
-89 -161 0
-85 -155 0
-85 -161 0
-87 -155 0
-85 -158 0
-88 -158 0
-89 -193 0
-91 -195 0
-89 -190 0
-90 -192 0
-87 -193 0
-90 -193 0
-88 -195 0
-86 -193 0
-87 -192 0
-89 -192 0
-88 -191 0
-86 -195 0
-88 -194 0
-90 -196 0
-94 -160 0
-98 -155 0
-94 -157 0
-93 -161 0
-95 -160 0
-92 -155 0
-93 -158 0
-92 -157 0
-94 -155 0
-97 -159 0
-95 -158 0
-98 -160 0
-92 -158 0
-96 -158 0
-102 -116 0
-103 -119 0
-102 -113 0
-105 -114 0
-101 -115 0
-101 -113 0
-102 -117 0
-99 -114 0
-99 -116 0
-105 -113 0
-104 -114 0
-100 -113 0
-103 -118 0
-101 -116 0
-104 -161 0
-105 -158 0
-102 -160 0
-105 -155 0
-101 -157 0
-100 -156 0
-103 -157 0
-105 -160 0
-104 -159 0
-103 -159 0
-103 -161 0
-102 -161 0
-100 -155 0
-104 -156 0
-106 -129 0
-108 -128 0
-107 -128 0
-109 -130 0
-110 -130 0
-107 -132 0
-111 -133 0
-111 -129 0
-108 -133 0
-109 -131 0
-112 -133 0
-108 -131 0
-106 -132 0
-112 -127 0
-112 -277 0
-106 -278 0
-108 -278 0
-107 -275 0
-107 -277 0
-112 -275 0
-112 -279 0
-109 -279 0
-106 -276 0
-109 -278 0
-108 -274 0
-107 -278 0
-111 -277 0
-106 -274 0
-118 -120 0
-119 -122 0
-115 -121 0
-118 -124 0
-114 -122 0
-115 -122 0
-114 -123 0
-113 -120 0
-119 -126 0
-115 -126 0
-118 -121 0
-119 -125 0
-114 -126 0
-113 -124 0
-113 -158 0
-114 -157 0
-117 -159 0
-115 -160 0
-114 -160 0
-119 -161 0
-115 -159 0
-113 -161 0
-117 -156 0
-118 -158 0
-115 -157 0
-115 -155 0
-114 -161 0
-119 -157 0
-114 -172 0
-115 -172 0
-118 -171 0
-115 -171 0
-115 -169 0
-119 -172 0
-115 -170 0
-116 -173 0
-115 -173 0
-115 -175 0
-113 -171 0
-119 -174 0
-118 -172 0
-116 -175 0
-113 -231 0
-117 -227 0
-119 -226 0
-115 -226 0
-113 -229 0
-115 -225 0
-114 -225 0
-119 -229 0
-118 -229 0
-118 -227 0
-113 -225 0
-119 -231 0
-113 -230 0
-114 -228 0
-119 -264 0
-115 -266 0
-113 -263 0
-116 -265 0
-118 -266 0
-115 -261 0
-119 -261 0
-119 -263 0
-113 -261 0
-118 -261 0
-119 -265 0
-119 -262 0
-118 -262 0
-117 -263 0
-120 -255 0
-120 -253 0
-121 -253 0
-125 -255 0
-122 -258 0
-123 -258 0
-126 -257 0
-120 -258 0
-125 -258 0
-122 -255 0
-126 -253 0
-121 -254 0
-123 -256 0
-122 -254 0
-128 -152 0
-132 -151 0
-132 -152 0
-132 -153 0
-130 -148 0
-133 -152 0
-128 -154 0
-131 -154 0
-128 -150 0
-128 -149 0
-129 -152 0
-127 -152 0
-127 -148 0
-130 -151 0
-131 -170 0
-129 -172 0
-132 -174 0
-133 -169 0
-129 -174 0
-133 -172 0
-132 -175 0
-130 -171 0
-132 -171 0
-131 -169 0
-130 -169 0
-132 -170 0
-133 -173 0
-129 -170 0
-127 -177 0
-128 -178 0
-129 -181 0
-133 -176 0
-131 -181 0
-129 -180 0
-128 -181 0
-127 -180 0
-132 -180 0
-128 -179 0
-132 -181 0
-132 -182 0
-129 -177 0
-132 -179 0
-128 -236 0
-130 -235 0
-128 -234 0
-132 -234 0
-128 -232 0
-129 -237 0
-133 -236 0
-133 -237 0
-128 -237 0
-131 -234 0
-131 -235 0
-127 -237 0
-132 -236 0
-130 -237 0
-134 -231 0
-136 -228 0
-139 -226 0
-138 -230 0
-134 -230 0
-139 -228 0
-137 -227 0
-138 -226 0
-140 -227 0
-137 -228 0
-140 -231 0
-139 -230 0
-134 -228 0
-140 -229 0
-138 -248 0
-138 -252 0
-138 -250 0
-136 -246 0
-135 -250 0
-140 -251 0
-140 -246 0
-139 -249 0
-139 -252 0
-140 -250 0
-135 -252 0
-136 -249 0
-140 -252 0
-134 -248 0
-142 -204 0
-142 -210 0
-141 -206 0
-144 -204 0
-146 -207 0
-141 -204 0
-142 -205 0
-141 -205 0
-141 -208 0
-144 -209 0
-145 -210 0
-147 -208 0
-146 -205 0
-146 -208 0
-156 -164 0
-157 -163 0
-159 -163 0
-155 -165 0
-161 -162 0
-161 -165 0
-159 -166 0
-155 -168 0
-156 -167 0
-157 -162 0
-155 -167 0
-157 -164 0
-155 -166 0
-159 -162 0
-171 -238 0
-172 -233 0
-171 -234 0
-171 -237 0
-174 -236 0
-171 -233 0
-175 -236 0
-171 -236 0
-170 -235 0
-169 -235 0
-173 -235 0
-170 -232 0
-169 -234 0
-173 -238 0
-175 -241 0
-170 -241 0
-175 -244 0
-172 -244 0
-175 -239 0
-170 -244 0
-170 -243 0
-169 -244 0
-169 -243 0
-172 -245 0
-173 -241 0
-174 -245 0
-169 -241 0
-175 -242 0
-176 -247 0
-177 -247 0
-179 -249 0
-180 -252 0
-180 -249 0
-177 -252 0
-182 -250 0
-178 -252 0
-182 -252 0
-176 -252 0
-176 -249 0
-177 -246 0
-182 -249 0
-181 -246 0
-185 -219 0
-185 -221 0
-184 -219 0
-188 -224 0
-187 -222 0
-187 -224 0
-185 -222 0
-184 -218 0
-188 -219 0
-183 -220 0
-189 -218 0
-184 -222 0
-189 -221 0
-183 -222 0
-194 -228 0
-190 -230 0
-193 -226 0
-192 -225 0
-190 -226 0
-194 -229 0
-192 -229 0
-193 -229 0
-196 -226 0
-196 -231 0
-193 -230 0
-190 -231 0
-194 -225 0
-192 -228 0
-194 -240 0
-190 -243 0
-196 -241 0
-194 -241 0
-196 -242 0
-195 -240 0
-195 -241 0
-190 -242 0
-196 -245 0
-192 -241 0
-191 -240 0
-194 -244 0
-191 -242 0
-195 -239 0
-192 -261 0
-194 -263 0
-194 -260 0
-190 -261 0
-196 -264 0
-192 -264 0
-195 -262 0
-194 -262 0
-191 -266 0
-195 -260 0
-191 -264 0
-192 -263 0
-194 -265 0
-191 -263 0
-214 -225 0
-214 -227 0
-212 -228 0
-215 -226 0
-211 -228 0
-211 -226 0
-217 -226 0
-211 -230 0
-213 -228 0
-213 -231 0
-217 -230 0
-213 -225 0
-215 -229 0
-212 -230 0
-215 -251 0
-216 -249 0
-215 -252 0
-216 -246 0
-217 -246 0
-211 -248 0
-213 -249 0
-212 -249 0
-213 -246 0
-216 -247 0
-212 -251 0
-215 -249 0
-217 -247 0
-216 -250 0
-224 -259 0
-223 -258 0
-220 -258 0
-221 -254 0
-220 -255 0
-218 -258 0
-219 -254 0
-222 -258 0
-223 -257 0
-219 -257 0
-223 -259 0
-220 -259 0
-221 -259 0
-220 -253 0
-218 -271 0
-220 -273 0
-223 -267 0
-224 -271 0
-221 -271 0
-222 -269 0
-223 -273 0
-219 -272 0
-219 -273 0
-222 -270 0
-218 -270 0
-221 -267 0
-220 -271 0
-224 -269 0
-236 -241 0
-233 -240 0
-235 -243 0
-234 -241 0
-232 -241 0
-235 -240 0
-237 -242 0
-235 -244 0
-232 -245 0
-237 -240 0
-232 -240 0
-238 -244 0
-236 -239 0
-233 -244 0
-248 -272 0
-247 -272 0
-251 -270 0
-246 -270 0
-249 -271 0
-248 -267 0
-252 -270 0
-250 -270 0
-249 -272 0
-250 -267 0
-248 -273 0
-251 -272 0
-252 -271 0
-247 -270 0
-258 -268 0
-258 -273 0
-259 -267 0
-253 -269 0
-254 -270 0
-253 -270 0
-256 -269 0
-255 -267 0
-258 -267 0
-259 -269 0
-254 -268 0
-253 -272 0
-256 -268 0
-253 -273 0
-265 -271 0
-266 -270 0
-263 -267 0
-265 -272 0
-261 -267 0
-265 -268 0
-260 -273 0
-260 -270 0
-261 -272 0
-262 -268 0
-262 -269 0
-263 -268 0
-264 -267 0
-266 -273 0
-266 -276 0
-263 -279 0
-263 -274 0
-261 -280 0
-263 -280 0
-265 -277 0
-264 -279 0
-262 -274 0
-264 -275 0
-262 -279 0
-260 -275 0
-260 -280 0
-262 -278 0
-265 -278 0
